\* Problem: Unknown *\

Maximize
 obj: + xp_0_0 + xp_0_1 + xp_1_0 + xp_2_0 + xp_2_1 + xp_3_0 + xp_4_0
 + xp_5_0 + xp_6_0 + xp_6_1 + xp_6_2 + xp_7_0 + xp_8_0 + xp_9_0 + xp_9_1
 + xp_10_0 + xp_10_1 + xp_11_0 + xp_12_0 + xp_12_1 + xp_13_0 + xp_14_0
 + xp_15_0 + xp_15_1 + xp_16_0 + xp_17_0 + xp_17_1 + xp_18_0 + xp_18_1
 + xp_19_0 + xp_20_0 + xp_21_0 + xp_21_1 + xp_21_2 + xp_22_0 + xp_22_1
 + xp_23_0 + xp_24_0 + xp_24_1 + xp_24_2 + xp_25_0 + xp_26_0 + xp_27_0
 + xp_28_0 + xp_28_1 + xp_29_0 + xp_30_0 + xp_31_0 + xp_31_1 + xp_32_0
 + xp_33_0 + xp_34_0 + xp_35_0 + xp_36_0 + xp_37_0 + xp_38_0 + xp_38_1
 + xp_39_0 + xp_40_0 + xp_40_1 + xp_41_0 + xp_42_0 + xp_42_1 + xp_43_0
 + xp_44_0 + xp_45_0 + xp_46_0 + xp_47_0 + xp_48_0 + xp_48_1 + xp_49_0
 + xp_50_0 + xp_51_0 + xp_52_0 + xp_52_1 + xp_53_0 + xp_54_0 + xp_55_0
 + xp_56_0 + xp_57_0 + xp_58_0 + xp_58_1 + xp_59_0 + xp_60_0 + xp_60_1
 + xp_60_2 + xp_61_0 + xp_61_1 + xp_62_0 + xp_63_0 + xp_63_1 + xp_64_0
 + xp_65_0

Subject To
 r_1: + xp_53_0 + xp_51_0 + xp_42_1 + xp_40_0 + xp_35_0 + xp_33_0
 <= 152.393669634026
 r_2: + xp_58_1 + xp_24_2 + xp_15_1 <= 155
 r_3: + xp_56_0 + xp_21_0 + xp_12_0 <= 155
 r_4: + xp_65_0 + xp_50_0 + xp_45_0 + xp_24_1 + xp_24_0 + xp_21_2
 + xp_15_0 + xp_10_1 + xp_10_0 + xp_5_0 + xp_2_1 <= 140.768902785674
 r_5: + xp_38_0 + xp_31_1 + xp_17_0 + xp_14_0 <= 140.768902785674
 r_6: + xp_52_1 + xp_22_0 + xp_21_1 + xp_13_0 + xp_12_1 + xp_3_0
 + xp_2_0 <= 153.637538779731
 r_7: + xp_60_2 + xp_60_1 + xp_48_1 + xp_46_0 + xp_42_0 + xp_40_1
 + xp_6_2 + xp_0_0 <= 150.204731574158
 r_8: 0 xp_0_0 <= 152.393669634026
 r_9: + xp_64_0 + xp_63_1 + xp_25_0 + xp_24_2 + xp_21_0 + xp_6_0
 <= 152.393669634026
 r_10: + xp_63_0 <= 151.25355450237
 r_11: + xp_61_1 + xp_60_0 + xp_38_1 + xp_31_0 <= 155
 r_12: + xp_62_0 + xp_61_0 + xp_60_2 + xp_60_1 + xp_22_1
 <= 153.637538779731
 r_13: + xp_64_0 + xp_59_0 + xp_58_1 + xp_56_0 + xp_29_0 + xp_24_2
 + xp_21_0 + xp_20_0 + xp_15_1 + xp_12_0 <= 152.393669634026
 r_14: + xp_60_1 + xp_57_0 + xp_53_0 + xp_42_1 + xp_35_0 + xp_18_0
 <= 152.393669634026
 r_15: + xp_63_1 + xp_58_0 <= 150.204731574158
 r_16: + xp_65_0 + xp_55_0 + xp_53_0 + xp_51_0 + xp_50_0 + xp_10_1
 + xp_10_0 <= 155
 r_17: + xp_58_1 + xp_54_0 + xp_52_1 + xp_36_0 + xp_31_1
 <= 140.768902785674
 r_18: + xp_52_0 + xp_21_2 + xp_2_1 <= 155
 r_19: + xp_60_0 + xp_48_0 <= 152.393669634026
 r_20: + xp_61_1 + xp_50_0 + xp_49_0 + xp_48_1 + xp_46_0 + xp_45_0
 + xp_10_1 + xp_9_1 + xp_6_2 <= 140.768902785674
 r_21: + xp_47_0 + xp_26_0 + xp_22_1 + xp_17_1 + xp_17_0 + xp_7_0 <= 155
 r_22: + xp_61_0 + xp_60_2 + xp_60_1 + xp_43_0 + xp_42_0 + xp_40_1
 + xp_38_0 <= 153.637538779731
 r_23: + xp_56_0 + xp_52_1 + xp_52_0 + xp_41_0 + xp_38_1 + xp_34_0
 + xp_31_0 <= 153.637538779731
 r_24: + xp_62_0 + xp_44_0 + xp_42_1 + xp_40_0 + xp_39_0 + xp_21_1
 + xp_12_1 + xp_2_0 <= 153.637538779731
 r_25: + xp_62_0 + xp_44_0 + xp_42_1 + xp_40_0 + xp_37_0 + xp_35_0
 + xp_33_0 <= 155
 r_26: + xp_39_0 + xp_36_0 + xp_32_0 + xp_31_1 <= 155
 r_27: + xp_56_0 + xp_52_0 + xp_34_0 + xp_31_0 + xp_30_0
 <= 153.637538779731
 r_28: + xp_60_2 + xp_60_0 + xp_48_1 + xp_48_0 + xp_42_0 + xp_27_0
 + xp_25_0 + xp_24_2 + xp_21_0 + xp_18_1 + xp_8_0 + xp_6_0
 <= 151.25355450237
 r_29: + xp_29_0 + xp_28_0 + xp_24_1 + xp_22_0 + xp_6_1 + xp_0_1
 <= 150.204731574158
 r_30: + xp_63_0 + xp_28_1 + xp_26_0 + xp_24_0 + xp_23_0 + xp_22_1
 + xp_21_2 + xp_21_1 + xp_17_1 <= 152.393669634026
 r_31: + xp_63_1 + xp_58_0 + xp_28_0 + xp_24_1 + xp_22_0 + xp_19_0
 + xp_17_0 + xp_15_0 + xp_14_0 + xp_13_0 + xp_12_1 <= 150.204731574158
 r_32: + xp_60_1 + xp_46_0 + xp_40_1 + xp_29_0 + xp_20_0 + xp_18_0
 + xp_16_0 + xp_15_1 + xp_12_0 + xp_6_2 + xp_6_1 <= 150.204731574158
 r_33: + xp_60_2 + xp_48_1 + xp_42_0 + xp_18_1 + xp_17_1 + xp_11_0
 <= 150.204731574158
 r_34: + xp_26_0 + xp_23_0 + xp_22_1 + xp_17_1 + xp_10_1 + xp_9_1
 + xp_7_0 + xp_6_2 + xp_4_0 <= 152.393669634026
 r_35: + xp_60_0 + xp_48_0 + xp_8_0 + xp_6_1 + xp_6_0 + xp_1_0 + xp_0_1
 <= 152.393669634026
 r_36: + xp_63_0 + xp_28_1 + xp_24_0 + xp_21_2 + xp_21_1 + xp_10_0
 + xp_9_0 + xp_5_0 + xp_3_0 + xp_2_1 + xp_2_0 + xp_0_0
 <= 152.393669634026

Bounds
 0 <= xp_0_0 <= 5.6138558692422
 0 <= xp_0_1 <= 22.4554234769688
 0 <= xp_1_0 <= 22.7433135215453
 0 <= xp_2_0 <= 20.037147102526
 0 <= xp_2_1 <= 5.0092867756315
 0 <= xp_3_0 <= 14.5384472511144
 0 <= xp_4_0 <= 28.5011144130758
 0 <= xp_5_0 <= 22.7433135215453
 0 <= xp_6_0 <= 10.4791976225854
 0 <= xp_6_1 <= 10.4791976225854
 0 <= xp_6_2 <= 5.23959881129272
 0 <= xp_7_0 <= 22.1675334323923
 0 <= xp_8_0 <= 25.1903789004458
 0 <= xp_9_0 <= 14.0490341753343
 0 <= xp_9_1 <= 3.51225854383358
 0 <= xp_10_0 <= 9.84583952451709
 0 <= xp_10_1 <= 6.56389301634472
 0 <= xp_11_0 <= 25.7661589895988
 0 <= xp_12_0 <= 6.73662704309064
 0 <= xp_12_1 <= 10.104940564636
 0 <= xp_13_0 <= 15.1142273402675
 0 <= xp_14_0 <= 22.8872585438336
 0 <= xp_15_0 <= 11.4004457652303
 0 <= xp_15_1 <= 17.1006686478455
 0 <= xp_16_0 <= 27.2056092124814
 0 <= xp_17_0 <= 14.3369242199108
 0 <= xp_17_1 <= 9.55794947994056
 0 <= xp_18_0 <= 4.08803863298663
 0 <= xp_18_1 <= 16.3521545319465
 0 <= xp_19_0 <= 19.7204680534918
 0 <= xp_20_0 <= 23.4630386329866
 0 <= xp_21_0 <= 3.77135958395245
 0 <= xp_21_1 <= 7.5427191679049
 0 <= xp_21_2 <= 7.5427191679049
 0 <= xp_22_0 <= 4.57745170876672
 0 <= xp_22_1 <= 18.3098068350669
 0 <= xp_23_0 <= 23.6069836552749
 0 <= xp_24_0 <= 7.36998514115899
 0 <= xp_24_1 <= 7.36998514115899
 0 <= xp_24_2 <= 3.68499257057949
 0 <= xp_25_0 <= 28.069279346211
 0 <= xp_26_0 <= 18.712852897474
 0 <= xp_27_0 <= 15.1142273402675
 0 <= xp_28_0 <= 19.9219910846954
 0 <= xp_28_1 <= 4.98049777117385
 0 <= xp_29_0 <= 22.5993684992571
 0 <= xp_30_0 <= 27.9253343239227
 0 <= xp_31_0 <= 3.59862555720654
 0 <= xp_31_1 <= 14.3945022288262
 0 <= xp_32_0 <= 15.8339524517088
 0 <= xp_33_0 <= 19.0007429420505
 0 <= xp_34_0 <= 22.8872585438336
 0 <= xp_35_0 <= 15.6900074294205
 0 <= xp_36_0 <= 18.1370728083209
 0 <= xp_37_0 <= 14.3945022288262
 0 <= xp_38_0 <= 10.7095096582467
 0 <= xp_38_1 <= 7.13967310549777
 0 <= xp_39_0 <= 15.2581723625557
 0 <= xp_40_0 <= 11.7459138187221
 0 <= xp_40_1 <= 7.83060921248143
 0 <= xp_41_0 <= 20.7280832095097
 0 <= xp_42_0 <= 9.67310549777117
 0 <= xp_42_1 <= 14.5096582466568
 0 <= xp_43_0 <= 17.1294576523031
 0 <= xp_44_0 <= 18.2810178306092
 0 <= xp_45_0 <= 15.1142273402675
 0 <= xp_46_0 <= 21.1599182763744
 0 <= xp_47_0 <= 20.1523031203566
 0 <= xp_48_0 <= 22.8008915304606
 0 <= xp_48_1 <= 5.70022288261516
 0 <= xp_49_0 <= 14.9702823179792
 0 <= xp_50_0 <= 16.2657875185735
 0 <= xp_51_0 <= 24.3267087667162
 0 <= xp_52_0 <= 21.5341753343239
 0 <= xp_52_1 <= 5.38354383358098
 0 <= xp_53_0 <= 28.2132243684993
 0 <= xp_54_0 <= 27.7813893016345
 0 <= xp_55_0 <= 21.7356983655275
 0 <= xp_56_0 <= 15.2581723625557
 0 <= xp_57_0 <= 17.9931277860327
 0 <= xp_58_0 <= 22.3402674591382
 0 <= xp_58_1 <= 5.58506686478455
 0 <= xp_59_0 <= 27.9253343239227
 0 <= xp_60_0 <= 7.08209509658247
 0 <= xp_60_1 <= 3.54104754829123
 0 <= xp_60_2 <= 7.08209509658247
 0 <= xp_61_0 <= 20.8432392273403
 0 <= xp_61_1 <= 5.21080980683507
 0 <= xp_62_0 <= 27.7813893016345
 0 <= xp_63_0 <= 20.8432392273403
 0 <= xp_63_1 <= 5.21080980683507
 0 <= xp_64_0 <= 28.069279346211
 0 <= xp_65_0 <= 20.2962481426449

End
